395349.28
525 526 529 530 531 532 533 534 535 536 537 538 519 518 520 517 516 515 514 513 512 511 510 509 508 507 506 505 504 503 502 2058 2057 2059 501 500 498 497 499 493 492 2061 2060 2063 2062 2064 2065 2066 2067 2068 2069 2070 2071 2072 2074 2073 2075 2076 2077 2078 2079 2080 2081 2082 2085 2084 2083 2020 2019 2018 2021 2024 2025 2031 2030 2032 2048 2052 2053 2055 2056 2054 2051 2050 2049 2047 2046 2045 2044 2043 2042 2041 2040 2039 2038 2037 2033 2036 2035 2034 2029 2027 2028 2026 2023 2022 2017 2016 2015 2014 2013 2086 2087 2088 2089 2090 2091 2012 2011 2010 1997 2009 2008 2007 2000 1999 1998 1995 1996 2093 2092 2094 2095 2096 2097 2098 2099 2100 2102 2101 2103 2104 2105 2106 2107 2108 2109 2110 2111 2112 2113 2114 2117 2116 2150 2149 2143 2142 2126 2127 2125 2124 2123 2122 2121 2120 2118 2119 1993 1994 1992 1991 1990 1989 2002 2001 2003 2004 2006 2005 1966 1965 1964 1969 1967 1968 1971 1970 1963 1962 1961 1960 1959 1958 1957 1956 1955 1954 1973 1974 1972 1975 1976 1977 1978 1979 1980 1981 1982 1983 1984 1985 1986 1988 1987 2128 2129 2130 2131 2132 2133 2134 2135 2136 2138 2139 2140 2137 2141 2144 2145 2147 2146 2148 2151 2152 2115 2153 2154 2155 1617 1618 2156 2157 2158 2159 1615 1616 1619 1620 1621 1634 1622 1623 1624 1626 1625 1627 1654 1653 1655 1659 1660 1661 1662 1663 1666 1664 1665 1667 1668 1669 1670 1671 1672 1673 1674 1675 1676 1677 1658 1657 1656 1652 1651 1650 1649 1648 1647 1646 1645 1644 1643 1642 1641 1639 1637 1638 1640 1629 1628 1630 1631 1632 1633 1636 1635 1613 1614 1612 1611 1610 1609 1608 1607 1606 1605 1604 1603 1600 1598 1597 1599 1601 1602 2160 2161 2162 2163 2164 2165 2166 2167 2168 2169 2170 2171 2172 2173 2174 2175 2176 2177 2178 2179 2180 2181 2182 2183 2184 2185 2186 2187 2188 2189 2190 2191 2192 2193 2194 2195 2196 2197 2198 2199 2200 2201 2202 2203 2204 2205 2206 2207 2208 2209 2210 2211 2212 359 360 361 362 363 364 365 366 367 368 369 370 371 372 373 374 375 376 377 378 379 380 381 382 383 384 385 386 387 388 334 335 336 337 338 339 340 341 345 342 344 343 282 283 284 281 285 286 287 289 290 293 295 296 294 292 291 326 328 330 332 333 331 329 327 325 324 322 323 321 320 319 318 317 316 315 312 311 313 308 310 309 307 306 314 305 304 303 302 301 300 299 298 297 288 271 270 272 280 279 278 277 261 352 353 351 348 346 347 349 350 358 357 356 257 256 258 355 354 259 260 255 254 253 2221 2220 2219 2218 2217 2216 2215 2214 2213 2272 2273 2271 2274 2275 2270 2268 2269 2276 2277 2278 2279 2280 2281 2282 2284 2283 2290 2293 2291 2292 2294 2289 2288 2295 2298 2297 2296 2287 2286 2285 2309 2308 2307 2306 2329 2326 2328 2310 2327 2325 2324 2323 2322 2321 2320 2312 2311 2313 2314 2315 2316 2317 2319 2318 2267 2266 2265 2264 2263 2262 2261 2260 2259 2258 2223 2257 2256 2255 2254 2253 2252 2251 2250 2249 2248 2247 2246 2245 2244 2243 2235 2236 2238 2237 2234 2233 2232 2231 2230 2229 2228 2226 2227 2225 2224 2222 252 251 250 247 246 244 243 245 248 249 262 263 276 275 274 273 269 268 267 266 265 264 242 241 240 239 237 238 236 235 234 233 232 231 230 229 228 227 226 225 224 223 222 221 218 217 216 215 214 213 212 211 207 208 210 209 206 205 204 203 219 220 201 200 202 199 193 192 190 43 44 45 46 48 52 53 56 55 54 51 50 49 47 187 186 188 189 191 194 195 196 198 197 170 171 173 172 185 184 183 182 181 180 179 178 176 175 174 167 168 169 166 165 164 177 81 82 80 79 78 77 76 75 74 72 1244 73 71 70 69 68 67 66 65 64 63 62 61 60 57 58 22 59 21 20 19 18 16 15 14 13 12 11 17 10 9 8 1350 1351 7 5 4 6 3 1 2 0 2391 2390 2389 2385 2384 2386 2387 2388 1354 1355 1353 1352 1349 1348 1347 1346 1345 1344 1343 1342 1341 1340 1338 1339 1337 1336 1335 1334 1333 1332 1331 1330 1327 1328 1329 1393 1394 1395 1396 1390 1389 1385 1384 1386 1387 1388 1391 1392 1357 1356 1358 1359 1360 1361 1362 1363 1364 1365 1366 1375 1379 1380 1381 1382 1383 1378 1377 1376 1374 1373 1372 1371 1370 1369 1368 1367 2383 2382 2381 2380 2379 2378 2377 2376 2375 2374 2373 2372 2369 2371 2370 2351 2352 2353 2354 2355 2356 2357 2358 2359 2360 2367 2368 2365 2364 2363 2366 2361 2362 29 27 28 26 23 24 25 31 30 32 33 34 35 36 37 38 39 40 42 41 2239 2240 2241 2242 2349 2350 2348 2347 2340 2346 2345 2344 2343 2342 2341 2339 2338 2337 2336 2335 2333 2334 2332 2331 2330 2305 2304 2303 2302 2301 2300 2299 1563 1562 1561 1560 1559 1558 1557 1556 1555 1554 1553 1552 1551 1550 1549 1546 1548 1547 1545 1544 1543 1542 1541 1540 1539 1538 1537 1534 1536 1535 1509 1508 1507 1506 1505 1504 1503 1502 1501 1514 1513 1512 1511 1510 1523 1524 1525 1526 1527 1528 1531 1533 1532 1530 1529 1564 1565 1566 1567 1568 1569 1570 1571 1572 1573 1574 1575 1576 1577 1578 1579 1583 1580 1582 1581 1520 1521 1522 1519 1518 1517 1516 1515 1500 1499 1498 1497 1496 1593 1592 1591 1590 1589 1586 1584 1585 1587 1588 1596 1595 1594 1495 1494 1493 1492 1491 1490 1489 1488 1485 1487 1486 1483 1484 1482 1481 1480 1479 1478 1477 1475 1476 1474 1473 1472 1471 1470 1469 1468 1467 1466 1465 1464 1463 1462 1461 1460 1459 1457 1456 1455 1454 1453 1452 1451 1450 1449 1448 1442 1443 1447 1446 1445 1444 1441 1458 1439 1438 1440 1437 1436 1435 1434 1433 1432 1431 1430 1429 1428 1427 1426 1425 1424 1423 1410 1422 1421 1420 1419 1418 1417 1416 1415 1414 1413 1412 1411 1409 1408 1406 1407 1405 1404 1403 1402 1401 1400 1399 1398 1397 1326 1325 1324 1323 1322 1321 1320 1319 1318 1317 1316 1315 1314 1313 1312 1311 1310 1309 1307 1305 1304 1306 1308 1303 1302 1301 1300 1299 1298 1297 1296 1295 1294 1293 1292 1291 1290 1289 1288 1287 1286 1285 1284 1283 1282 1281 1280 1279 1278 1277 1276 1275 1274 1273 1272 1271 1270 1269 1268 1267 1266 1265 1264 1263 1262 1261 1260 1259 1258 1257 1256 1255 1254 1253 1252 1251 1250 1249 1248 1247 1246 1245 1243 1242 1241 1240 1239 1238 1237 1236 1235 1234 1233 1232 1231 1230 1229 1228 1227 1226 1225 1224 1223 1222 1221 1220 1219 1218 1217 1216 1215 1214 1213 1212 1211 1210 1209 1208 1207 1206 1205 1204 1203 1202 1201 1200 1199 1198 1197 1192 1194 1196 1195 1193 1191 1190 1189 1188 1187 1186 1185 1184 1183 1182 1181 1180 1179 1177 1178 1175 1176 1142 1143 1149 1150 1166 1170 1171 1174 1173 1172 1169 1168 1167 1165 1164 1163 1162 1161 1160 1159 1158 1157 1156 1155 1154 1153 1152 1151 1148 1147 1145 1146 1144 1141 1140 1139 1138 1137 1136 1135 1134 1133 1132 1131 1130 1129 1128 1127 1126 1125 1124 1123 1122 1121 1119 1120 1118 1117 1116 1115 1112 1113 1114 116 117 115 114 113 112 111 110 109 108 107 106 105 104 103 102 100 101 99 98 97 96 95 94 93 92 91 90 89 88 87 86 85 84 83 162 163 161 160 159 158 157 156 155 154 153 152 150 151 146 147 148 149 143 122 121 119 118 120 123 124 125 127 126 142 144 145 140 139 138 141 137 136 135 134 133 132 131 130 129 128 1110 1111 1109 1108 1107 1106 1105 1104 1103 1102 1101 1100 1099 1098 1097 1096 1095 1094 1091 1090 1089 1092 1088 1087 1093 1086 1085 1084 1083 1082 1081 1080 1079 1078 1077 1076 1075 1074 1073 1072 1071 1070 1069 1068 1067 1066 1065 1064 1063 1062 1061 1059 1060 1058 1057 1056 1051 1050 1049 1048 1053 1054 1052 1055 1031 1030 1032 1029 1028 1033 1034 1027 1026 1025 1024 1023 1022 1021 1020 1015 1014 1013 1012 1011 1035 1036 1037 1039 1040 1041 1042 1043 1044 1045 1038 1046 1047 990 989 988 987 986 985 984 982 981 980 979 978 977 976 975 974 973 972 971 970 969 968 967 966 965 964 963 962 961 960 959 958 957 956 955 954 953 952 983 951 950 949 948 947 946 945 944 943 942 941 940 939 998 999 997 1000 1001 996 992 991 993 994 995 1002 1003 1004 1005 1006 1007 1008 1010 1009 1016 1019 1018 1017 389 390 391 392 393 394 395 396 397 398 399 400 401 402 403 404 405 406 407 408 409 410 932 934 936 938 937 935 933 931 930 929 928 927 926 925 924 923 922 921 920 918 919 916 915 914 913 912 910 911 890 889 891 907 909 908 906 905 904 903 902 901 900 899 898 897 896 892 895 894 893 888 886 887 885 882 884 883 917 881 880 879 878 875 877 876 411 412 413 414 874 873 872 871 870 869 868 867 866 827 830 828 829 832 831 825 826 824 823 822 821 820 819 818 817 816 815 814 813 812 811 810 809 808 807 806 805 804 803 802 801 800 799 797 798 796 795 794 769 768 767 766 770 771 793 792 791 790 789 788 787 772 759 758 757 756 760 762 761 765 764 763 750 755 754 751 753 752 749 748 747 746 745 744 742 741 740 739 738 737 736 735 734 733 732 731 730 729 728 726 725 727 724 723 722 721 720 719 718 717 716 715 714 712 713 743 711 710 709 708 707 706 705 704 703 702 701 700 699 698 697 696 695 694 693 692 691 690 689 688 687 686 685 684 683 682 681 680 679 678 677 778 777 779 782 781 780 776 775 774 773 786 785 784 783 665 664 663 662 661 660 659 658 657 656 655 654 653 652 651 648 647 646 645 644 643 642 641 640 639 638 637 568 625 626 627 628 629 630 635 636 634 633 632 631 666 667 668 669 670 671 672 673 676 675 674 617 616 618 615 614 613 619 620 621 622 623 624 571 572 570 569 567 578 577 576 573 574 575 579 562 566 565 564 563 561 582 581 580 604 603 602 599 606 605 607 610 612 611 609 608 598 597 596 600 601 593 594 595 1842 1841 1840 1839 1838 1837 1836 1835 1834 1833 1832 1831 1830 1829 1828 1827 1826 1825 1824 1823 1822 1821 1820 1817 1816 1818 1819 1917 1918 1916 1915 1913 1914 1919 1920 1921 1923 1922 1806 1805 1807 1808 1809 1810 1811 1812 1815 1814 1813 1756 1755 1757 1754 1753 1752 1758 1759 1760 1761 1762 1763 1710 1709 1711 1712 1713 1743 1742 1741 1739 1738 1745 1744 1746 1749 1751 1750 1748 1747 1737 1736 1735 1734 1733 1740 1732 1731 1730 1729 1728 1727 1726 1725 1724 1723 1722 1721 1720 1719 1718 1714 1715 1716 1717 1708 1764 1765 1766 1767 1768 1774 1775 1773 1772 1769 1770 1771 1804 1803 1802 1801 1800 1799 1798 1797 1796 1780 1779 1778 1777 1776 1707 1706 1705 1704 1703 1702 1701 1700 1699 1698 1697 1696 1694 1695 1693 1692 1691 1690 1689 1688 1687 1686 1685 1684 1683 1682 1681 1680 1679 1678 1788 1789 1787 1786 1782 1783 1781 1784 1785 1793 1795 1794 1792 1790 1791 1945 1944 1946 1947 1948 1949 1950 1953 1952 1951 1943 1942 1941 1940 1939 1938 1936 1937 1935 1934 1933 1932 1931 1930 1929 1928 1927 1924 1926 1925 1912 1911 1910 1909 1908 1907 1906 1905 1900 1904 1903 1889 1902 1901 1899 1898 1897 1896 1895 1894 1893 1892 1891 1890 1888 1887 1886 1877 1885 1884 1883 1881 1880 1879 1878 1876 1875 1874 1873 1872 1871 1870 1869 1868 1867 1865 1864 1866 1861 1863 1862 1859 1860 1858 1857 1856 1855 1854 1853 1852 1851 1882 1850 1849 1848 1847 1846 1845 1843 1844 591 592 590 589 588 587 586 583 585 584 560 559 558 557 555 556 554 553 552 551 550 549 548 547 546 545 544 543 542 541 540 539 649 650 456 457 458 455 454 453 452 451 848 847 846 845 844 843 842 841 840 836 834 835 833 837 838 839 849 850 851 853 854 855 852 863 864 865 862 861 860 859 856 857 858 416 415 417 418 419 420 421 422 423 425 424 426 427 428 429 430 431 432 433 434 435 436 437 440 439 473 472 445 444 441 442 443 446 447 448 450 449 465 466 467 464 460 459 461 462 463 468 470 469 471 474 475 438 476 477 478 479 481 482 483 484 485 486 480 487 488 489 490 491 494 495 496 523 522 521 528 527 524